
Gurobi 9.5.1 (linux64) logging started Tue Jun  7 16:48:15 2022

Set parameter LogFile to value "../results/logs/log_CA-CondMat_4_3_2022_06_07_14_43.log"
Gurobi Optimizer version 9.5.1 build v9.5.1rc2 (linux64)
Thread count: 8 physical cores, 8 logical processors, using up to 8 threads
Optimize a model with 2359 rows, 46266 columns and 24914 nonzeros
Model fingerprint: 0x0bd61b34
Variable types: 0 continuous, 46266 integer (46266 binary)
Coefficient statistics:
  Matrix range     [1e+00, 4e+00]
  Objective range  [1e+00, 1e+00]
  Bounds range     [1e+00, 1e+00]
  RHS range        [1e+00, 3e+00]
Found heuristic solution: objective 13464.000000
Presolve removed 1058 rows and 44303 columns
Presolve time: 0.07s
Presolved: 1301 rows, 1963 columns, 6273 nonzeros
Found heuristic solution: objective 13467.000000
Variable types: 0 continuous, 1963 integer (1713 binary)

Root relaxation: objective 1.361354e+04, 945 iterations, 0.01 seconds (0.01 work units)

    Nodes    |    Current Node    |     Objective Bounds      |     Work
 Expl Unexpl |  Obj  Depth IntInf | Incumbent    BestBd   Gap | It/Node Time

     0     0 13613.5385    0  172 13467.0000 13613.5385  1.09%     -    0s
H    0     0                    13472.000000 13613.5385  1.05%     -    0s
H    0     0                    13474.000000 13613.5385  1.04%     -    0s
H    0     0                    13475.000000 13613.5385  1.03%     -    0s
H    0     0                    13479.000000 13610.1647  0.97%     -    0s
H    0     0                    13481.000000 13610.1647  0.96%     -    0s
     0     0 13484.5224    0   31 13481.0000 13484.5224  0.03%     -    0s
H    0     0                    13482.000001 13483.6917  0.01%     -    0s
     0     0 13483.6917    0   30 13482.0000 13483.6917  0.01%     -    0s
     0     0 13482.0000    0   25 13482.0000 13482.0000  0.00%     -    0s

Cutting planes:
  Gomory: 80
  Cover: 7
  Implied bound: 2
  MIR: 63
  StrongCG: 5
  GUB cover: 72
  Zero half: 10
  RLT: 20
  Relax-and-lift: 1

Explored 1 nodes (1182 simplex iterations) in 0.24 seconds (0.16 work units)
Thread count was 8 (of 8 available processors)

Solution count 8: 13482 13481 13479 ... 13464

Optimal solution found (tolerance 0.00e+00)
Best objective 1.348200000194e+04, best bound 1.348200000194e+04, gap 0.0000%
